100 4950
1 2 1
1 3 5
1 4 1
1 5 5
1 6 5
1 7 4
1 8 3
1 9 4
1 10 1
1 11 4
1 12 2
1 13 4
1 14 5
1 15 3
1 16 4
1 17 5
1 18 4
1 19 3
1 20 3
1 21 3
1 22 3
1 23 2
1 24 3
1 25 3
1 26 1
1 27 3
1 28 3
1 29 1
1 30 1
1 31 5
1 32 4
1 33 2
1 34 2
1 35 4
1 36 4
1 37 5
1 38 3
1 39 4
1 40 1
1 41 1
1 42 2
1 43 2
1 44 4
1 45 4
1 46 4
1 47 3
1 48 3
1 49 3
1 50 4
1 51 1
1 52 5
1 53 2
1 54 3
1 55 3
1 56 2
1 57 5
1 58 1
1 59 1
1 60 4
1 61 1
1 62 3
1 63 1
1 64 4
1 65 5
1 66 4
1 67 5
1 68 3
1 69 2
1 70 1
1 71 2
1 72 5
1 73 4
1 74 4
1 75 3
1 76 3
1 77 4
1 78 3
1 79 2
1 80 3
1 81 4
1 82 4
1 83 4
1 84 1
1 85 3
1 86 3
1 87 3
1 88 4
1 89 1
1 90 2
1 91 1
1 92 4
1 93 5
1 94 1
1 95 5
1 96 5
1 97 3
1 98 5
1 99 5
1 100 2
2 3 3
2 4 2
2 5 1
2 6 5
2 7 4
2 8 1
2 9 2
2 10 3
2 11 5
2 12 5
2 13 1
2 14 1
2 15 5
2 16 1
2 17 2
2 18 3
2 19 1
2 20 2
2 21 4
2 22 1
2 23 2
2 24 4
2 25 5
2 26 4
2 27 1
2 28 2
2 29 5
2 30 1
2 31 2
2 32 4
2 33 2
2 34 5
2 35 2
2 36 1
2 37 2
2 38 2
2 39 1
2 40 2
2 41 1
2 42 2
2 43 2
2 44 1
2 45 1
2 46 3
2 47 3
2 48 5
2 49 3
2 50 5
2 51 2
2 52 2
2 53 1
2 54 1
2 55 5
2 56 3
2 57 5
2 58 4
2 59 1
2 60 3
2 61 4
2 62 4
2 63 3
2 64 1
2 65 3
2 66 1
2 67 3
2 68 2
2 69 4
2 70 1
2 71 3
2 72 4
2 73 3
2 74 5
2 75 1
2 76 3
2 77 5
2 78 1
2 79 3
2 80 5
2 81 4
2 82 5
2 83 1
2 84 1
2 85 1
2 86 4
2 87 5
2 88 4
2 89 5
2 90 4
2 91 3
2 92 5
2 93 4
2 94 5
2 95 3
2 96 4
2 97 1
2 98 5
2 99 2
2 100 3
3 4 2
3 5 4
3 6 2
3 7 4
3 8 1
3 9 1
3 10 3
3 11 4
3 12 1
3 13 1
3 14 4
3 15 4
3 16 1
3 17 1
3 18 3
3 19 2
3 20 2
3 21 5
3 22 1
3 23 2
3 24 1
3 25 3
3 26 1
3 27 2
3 28 4
3 29 4
3 30 3
3 31 1
3 32 2
3 33 3
3 34 3
3 35 5
3 36 1
3 37 5
3 38 2
3 39 5
3 40 2
3 41 4
3 42 3
3 43 4
3 44 1
3 45 5
3 46 2
3 47 5
3 48 1
3 49 4
3 50 1
3 51 5
3 52 5
3 53 5
3 54 3
3 55 5
3 56 2
3 57 5
3 58 2
3 59 1
3 60 4
3 61 5
3 62 3
3 63 1
3 64 1
3 65 2
3 66 1
3 67 5
3 68 3
3 69 2
3 70 1
3 71 2
3 72 3
3 73 5
3 74 3
3 75 1
3 76 5
3 77 3
3 78 2
3 79 4
3 80 5
3 81 2
3 82 1
3 83 1
3 84 4
3 85 1
3 86 4
3 87 1
3 88 4
3 89 3
3 90 1
3 91 4
3 92 3
3 93 2
3 94 4
3 95 1
3 96 1
3 97 3
3 98 2
3 99 1
3 100 2
4 5 1
4 6 2
4 7 2
4 8 4
4 9 5
4 10 3
4 11 2
4 12 2
4 13 4
4 14 3
4 15 4
4 16 1
4 17 4
4 18 3
4 19 4
4 20 1
4 21 2
4 22 2
4 23 3
4 24 5
4 25 5
4 26 2
4 27 5
4 28 3
4 29 4
4 30 4
4 31 5
4 32 5
4 33 1
4 34 5
4 35 5
4 36 5
4 37 1
4 38 4
4 39 1
4 40 1
4 41 5
4 42 3
4 43 1
4 44 5
4 45 1
4 46 2
4 47 4
4 48 2
4 49 3
4 50 4
4 51 2
4 52 5
4 53 4
4 54 3
4 55 3
4 56 2
4 57 1
4 58 5
4 59 5
4 60 4
4 61 2
4 62 5
4 63 2
4 64 2
4 65 3
4 66 2
4 67 3
4 68 3
4 69 4
4 70 5
4 71 4
4 72 1
4 73 1
4 74 1
4 75 5
4 76 4
4 77 4
4 78 4
4 79 4
4 80 3
4 81 4
4 82 3
4 83 2
4 84 1
4 85 2
4 86 3
4 87 1
4 88 1
4 89 5
4 90 5
4 91 2
4 92 1
4 93 2
4 94 4
4 95 1
4 96 3
4 97 4
4 98 4
4 99 3
4 100 2
5 6 4
5 7 4
5 8 2
5 9 4
5 10 5
5 11 4
5 12 5
5 13 3
5 14 4
5 15 3
5 16 4
5 17 3
5 18 1
5 19 2
5 20 2
5 21 5
5 22 4
5 23 2
5 24 3
5 25 2
5 26 3
5 27 2
5 28 2
5 29 1
5 30 4
5 31 5
5 32 2
5 33 3
5 34 4
5 35 5
5 36 3
5 37 4
5 38 4
5 39 2
5 40 3
5 41 2
5 42 1
5 43 4
5 44 5
5 45 1
5 46 5
5 47 4
5 48 5
5 49 5
5 50 2
5 51 5
5 52 5
5 53 1
5 54 3
5 55 3
5 56 5
5 57 3
5 58 4
5 59 1
5 60 2
5 61 1
5 62 1
5 63 4
5 64 1
5 65 2
5 66 4
5 67 2
5 68 4
5 69 5
5 70 4
5 71 5
5 72 5
5 73 5
5 74 3
5 75 1
5 76 5
5 77 5
5 78 5
5 79 4
5 80 4
5 81 1
5 82 5
5 83 4
5 84 3
5 85 3
5 86 5
5 87 2
5 88 2
5 89 4
5 90 5
5 91 2
5 92 2
5 93 4
5 94 1
5 95 1
5 96 1
5 97 4
5 98 1
5 99 5
5 100 3
6 7 1
6 8 2
6 9 5
6 10 2
6 11 3
6 12 3
6 13 4
6 14 3
6 15 1
6 16 1
6 17 4
6 18 2
6 19 5
6 20 1
6 21 4
6 22 5
6 23 2
6 24 5
6 25 1
6 26 5
6 27 4
6 28 3
6 29 4
6 30 1
6 31 4
6 32 3
6 33 3
6 34 4
6 35 5
6 36 5
6 37 4
6 38 4
6 39 3
6 40 5
6 41 3
6 42 2
6 43 5
6 44 5
6 45 4
6 46 3
6 47 3
6 48 2
6 49 2
6 50 3
6 51 2
6 52 5
6 53 4
6 54 5
6 55 5
6 56 2
6 57 2
6 58 1
6 59 4
6 60 1
6 61 4
6 62 4
6 63 1
6 64 5
6 65 2
6 66 2
6 67 2
6 68 3
6 69 4
6 70 2
6 71 5
6 72 4
6 73 5
6 74 2
6 75 1
6 76 2
6 77 5
6 78 5
6 79 5
6 80 4
6 81 1
6 82 1
6 83 3
6 84 1
6 85 1
6 86 5
6 87 5
6 88 1
6 89 2
6 90 4
6 91 1
6 92 2
6 93 4
6 94 5
6 95 4
6 96 1
6 97 1
6 98 5
6 99 3
6 100 4
7 8 3
7 9 4
7 10 2
7 11 1
7 12 4
7 13 1
7 14 2
7 15 3
7 16 2
7 17 2
7 18 1
7 19 2
7 20 1
7 21 3
7 22 3
7 23 3
7 24 1
7 25 1
7 26 5
7 27 4
7 28 1
7 29 5
7 30 4
7 31 4
7 32 1
7 33 5
7 34 1
7 35 2
7 36 5
7 37 3
7 38 5
7 39 1
7 40 2
7 41 2
7 42 4
7 43 1
7 44 1
7 45 3
7 46 2
7 47 4
7 48 1
7 49 4
7 50 2
7 51 1
7 52 3
7 53 4
7 54 1
7 55 2
7 56 2
7 57 2
7 58 4
7 59 3
7 60 1
7 61 5
7 62 5
7 63 2
7 64 4
7 65 1
7 66 1
7 67 2
7 68 2
7 69 5
7 70 4
7 71 4
7 72 2
7 73 1
7 74 2
7 75 2
7 76 3
7 77 3
7 78 5
7 79 2
7 80 3
7 81 3
7 82 4
7 83 4
7 84 2
7 85 5
7 86 2
7 87 2
7 88 3
7 89 2
7 90 2
7 91 4
7 92 2
7 93 1
7 94 3
7 95 2
7 96 3
7 97 4
7 98 2
7 99 3
7 100 2
8 9 5
8 10 2
8 11 4
8 12 4
8 13 4
8 14 5
8 15 2
8 16 5
8 17 5
8 18 2
8 19 1
8 20 1
8 21 4
8 22 5
8 23 3
8 24 4
8 25 3
8 26 5
8 27 2
8 28 4
8 29 2
8 30 2
8 31 5
8 32 1
8 33 5
8 34 1
8 35 1
8 36 1
8 37 2
8 38 3
8 39 2
8 40 3
8 41 4
8 42 4
8 43 3
8 44 5
8 45 5
8 46 3
8 47 5
8 48 5
8 49 5
8 50 5
8 51 4
8 52 2
8 53 1
8 54 4
8 55 5
8 56 1
8 57 2
8 58 3
8 59 2
8 60 3
8 61 1
8 62 2
8 63 5
8 64 2
8 65 5
8 66 2
8 67 2
8 68 1
8 69 2
8 70 2
8 71 3
8 72 2
8 73 4
8 74 2
8 75 3
8 76 4
8 77 1
8 78 3
8 79 1
8 80 1
8 81 2
8 82 1
8 83 1
8 84 4
8 85 4
8 86 3
8 87 2
8 88 4
8 89 2
8 90 4
8 91 5
8 92 3
8 93 4
8 94 3
8 95 1
8 96 3
8 97 1
8 98 3
8 99 3
8 100 5
9 10 3
9 11 1
9 12 4
9 13 3
9 14 3
9 15 4
9 16 1
9 17 3
9 18 1
9 19 1
9 20 1
9 21 2
9 22 3
9 23 3
9 24 4
9 25 1
9 26 4
9 27 3
9 28 4
9 29 1
9 30 2
9 31 3
9 32 1
9 33 2
9 34 5
9 35 2
9 36 4
9 37 1
9 38 3
9 39 5
9 40 1
9 41 1
9 42 3
9 43 4
9 44 2
9 45 1
9 46 4
9 47 1
9 48 2
9 49 4
9 50 2
9 51 4
9 52 4
9 53 3
9 54 4
9 55 2
9 56 1
9 57 4
9 58 5
9 59 4
9 60 3
9 61 5
9 62 5
9 63 4
9 64 4
9 65 3
9 66 4
9 67 1
9 68 1
9 69 1
9 70 3
9 71 4
9 72 3
9 73 2
9 74 3
9 75 3
9 76 3
9 77 1
9 78 3
9 79 1
9 80 2
9 81 2
9 82 3
9 83 2
9 84 2
9 85 1
9 86 3
9 87 3
9 88 3
9 89 5
9 90 4
9 91 1
9 92 4
9 93 1
9 94 3
9 95 2
9 96 4
9 97 4
9 98 4
9 99 3
9 100 4
10 11 1
10 12 1
10 13 2
10 14 2
10 15 4
10 16 3
10 17 2
10 18 1
10 19 3
10 20 1
10 21 2
10 22 2
10 23 1
10 24 3
10 25 2
10 26 1
10 27 3
10 28 4
10 29 3
10 30 5
10 31 3
10 32 5
10 33 5
10 34 4
10 35 3
10 36 5
10 37 5
10 38 4
10 39 3
10 40 4
10 41 5
10 42 5
10 43 2
10 44 3
10 45 3
10 46 4
10 47 3
10 48 1
10 49 2
10 50 5
10 51 1
10 52 3
10 53 3
10 54 5
10 55 4
10 56 3
10 57 3
10 58 3
10 59 5
10 60 3
10 61 4
10 62 2
10 63 3
10 64 4
10 65 2
10 66 3
10 67 5
10 68 3
10 69 3
10 70 5
10 71 1
10 72 5
10 73 5
10 74 4
10 75 5
10 76 3
10 77 2
10 78 5
10 79 5
10 80 5
10 81 3
10 82 1
10 83 2
10 84 3
10 85 3
10 86 5
10 87 5
10 88 4
10 89 5
10 90 2
10 91 2
10 92 3
10 93 1
10 94 4
10 95 1
10 96 4
10 97 3
10 98 5
10 99 3
10 100 3
11 12 3
11 13 3
11 14 2
11 15 3
11 16 4
11 17 1
11 18 4
11 19 3
11 20 5
11 21 1
11 22 4
11 23 2
11 24 3
11 25 5
11 26 4
11 27 2
11 28 3
11 29 1
11 30 4
11 31 2
11 32 1
11 33 3
11 34 5
11 35 5
11 36 3
11 37 1
11 38 1
11 39 3
11 40 3
11 41 1
11 42 1
11 43 1
11 44 3
11 45 5
11 46 4
11 47 1
11 48 3
11 49 1
11 50 4
11 51 1
11 52 4
11 53 5
11 54 5
11 55 4
11 56 2
11 57 5
11 58 4
11 59 3
11 60 2
11 61 2
11 62 3
11 63 2
11 64 2
11 65 2
11 66 5
11 67 2
11 68 5
11 69 5
11 70 2
11 71 1
11 72 1
11 73 3
11 74 5
11 75 5
11 76 1
11 77 4
11 78 3
11 79 1
11 80 1
11 81 1
11 82 3
11 83 1
11 84 1
11 85 5
11 86 2
11 87 4
11 88 4
11 89 5
11 90 1
11 91 1
11 92 1
11 93 3
11 94 4
11 95 4
11 96 3
11 97 3
11 98 2
11 99 5
11 100 5
12 13 2
12 14 3
12 15 3
12 16 4
12 17 3
12 18 2
12 19 4
12 20 2
12 21 1
12 22 5
12 23 2
12 24 1
12 25 1
12 26 4
12 27 3
12 28 2
12 29 5
12 30 3
12 31 2
12 32 1
12 33 3
12 34 2
12 35 3
12 36 2
12 37 1
12 38 3
12 39 2
12 40 2
12 41 2
12 42 3
12 43 3
12 44 5
12 45 2
12 46 2
12 47 3
12 48 1
12 49 1
12 50 4
12 51 3
12 52 1
12 53 2
12 54 1
12 55 1
12 56 2
12 57 1
12 58 4
12 59 3
12 60 1
12 61 4
12 62 2
12 63 1
12 64 3
12 65 3
12 66 2
12 67 1
12 68 5
12 69 4
12 70 5
12 71 3
12 72 5
12 73 5
12 74 5
12 75 1
12 76 5
12 77 1
12 78 5
12 79 5
12 80 5
12 81 1
12 82 3
12 83 4
12 84 5
12 85 1
12 86 1
12 87 2
12 88 2
12 89 2
12 90 5
12 91 2
12 92 5
12 93 2
12 94 1
12 95 3
12 96 5
12 97 3
12 98 2
12 99 3
12 100 3
13 14 4
13 15 4
13 16 2
13 17 5
13 18 4
13 19 3
13 20 1
13 21 1
13 22 3
13 23 4
13 24 5
13 25 2
13 26 3
13 27 4
13 28 4
13 29 5
13 30 1
13 31 5
13 32 4
13 33 1
13 34 1
13 35 2
13 36 5
13 37 3
13 38 5
13 39 2
13 40 5
13 41 1
13 42 2
13 43 4
13 44 2
13 45 2
13 46 4
13 47 4
13 48 5
13 49 1
13 50 4
13 51 1
13 52 3
13 53 5
13 54 2
13 55 2
13 56 5
13 57 5
13 58 3
13 59 5
13 60 3
13 61 4
13 62 1
13 63 5
13 64 5
13 65 1
13 66 1
13 67 4
13 68 2
13 69 4
13 70 5
13 71 4
13 72 4
13 73 4
13 74 4
13 75 2
13 76 1
13 77 3
13 78 1
13 79 2
13 80 2
13 81 3
13 82 3
13 83 3
13 84 1
13 85 3
13 86 2
13 87 4
13 88 5
13 89 5
13 90 1
13 91 3
13 92 5
13 93 2
13 94 2
13 95 5
13 96 3
13 97 3
13 98 4
13 99 1
13 100 5
14 15 2
14 16 2
14 17 4
14 18 2
14 19 3
14 20 1
14 21 4
14 22 1
14 23 4
14 24 5
14 25 3
14 26 1
14 27 5
14 28 2
14 29 3
14 30 1
14 31 4
14 32 4
14 33 3
14 34 2
14 35 2
14 36 5
14 37 4
14 38 1
14 39 2
14 40 1
14 41 2
14 42 2
14 43 5
14 44 3
14 45 3
14 46 5
14 47 4
14 48 4
14 49 4
14 50 2
14 51 2
14 52 1
14 53 4
14 54 5
14 55 4
14 56 1
14 57 1
14 58 5
14 59 2
14 60 2
14 61 1
14 62 3
14 63 1
14 64 4
14 65 5
14 66 5
14 67 3
14 68 5
14 69 4
14 70 4
14 71 2
14 72 1
14 73 5
14 74 1
14 75 5
14 76 2
14 77 4
14 78 2
14 79 5
14 80 2
14 81 5
14 82 3
14 83 4
14 84 2
14 85 4
14 86 4
14 87 5
14 88 2
14 89 5
14 90 3
14 91 4
14 92 5
14 93 2
14 94 5
14 95 3
14 96 5
14 97 5
14 98 1
14 99 1
14 100 1
15 16 1
15 17 3
15 18 5
15 19 5
15 20 5
15 21 1
15 22 4
15 23 5
15 24 1
15 25 2
15 26 5
15 27 1
15 28 4
15 29 5
15 30 3
15 31 2
15 32 1
15 33 3
15 34 4
15 35 2
15 36 3
15 37 4
15 38 1
15 39 5
15 40 3
15 41 4
15 42 4
15 43 5
15 44 1
15 45 4
15 46 1
15 47 1
15 48 5
15 49 1
15 50 3
15 51 3
15 52 5
15 53 5
15 54 1
15 55 2
15 56 3
15 57 1
15 58 3
15 59 5
15 60 2
15 61 4
15 62 5
15 63 2
15 64 2
15 65 1
15 66 5
15 67 2
15 68 4
15 69 5
15 70 2
15 71 4
15 72 3
15 73 1
15 74 2
15 75 3
15 76 2
15 77 5
15 78 1
15 79 1
15 80 3
15 81 4
15 82 4
15 83 1
15 84 5
15 85 3
15 86 1
15 87 3
15 88 5
15 89 5
15 90 2
15 91 1
15 92 4
15 93 5
15 94 1
15 95 4
15 96 1
15 97 3
15 98 1
15 99 2
15 100 3
16 17 2
16 18 2
16 19 1
16 20 3
16 21 4
16 22 4
16 23 3
16 24 4
16 25 3
16 26 3
16 27 2
16 28 1
16 29 3
16 30 2
16 31 4
16 32 1
16 33 5
16 34 2
16 35 1
16 36 1
16 37 5
16 38 4
16 39 5
16 40 3
16 41 1
16 42 1
16 43 4
16 44 2
16 45 2
16 46 3
16 47 1
16 48 1
16 49 2
16 50 4
16 51 5
16 52 3
16 53 3
16 54 5
16 55 2
16 56 4
16 57 5
16 58 1
16 59 1
16 60 1
16 61 3
16 62 2
16 63 4
16 64 4
16 65 3
16 66 5
16 67 1
16 68 2
16 69 5
16 70 4
16 71 4
16 72 5
16 73 5
16 74 3
16 75 5
16 76 2
16 77 2
16 78 2
16 79 4
16 80 1
16 81 3
16 82 3
16 83 5
16 84 5
16 85 5
16 86 3
16 87 4
16 88 4
16 89 5
16 90 3
16 91 5
16 92 2
16 93 2
16 94 5
16 95 3
16 96 4
16 97 5
16 98 4
16 99 5
16 100 2
17 18 5
17 19 3
17 20 2
17 21 5
17 22 2
17 23 3
17 24 3
17 25 2
17 26 4
17 27 2
17 28 5
17 29 4
17 30 4
17 31 4
17 32 4
17 33 4
17 34 4
17 35 1
17 36 4
17 37 5
17 38 2
17 39 4
17 40 1
17 41 1
17 42 1
17 43 4
17 44 2
17 45 3
17 46 3
17 47 2
17 48 3
17 49 1
17 50 3
17 51 3
17 52 2
17 53 5
17 54 1
17 55 3
17 56 3
17 57 4
17 58 2
17 59 4
17 60 1
17 61 3
17 62 3
17 63 1
17 64 1
17 65 1
17 66 4
17 67 2
17 68 1
17 69 3
17 70 3
17 71 1
17 72 4
17 73 5
17 74 3
17 75 3
17 76 3
17 77 2
17 78 4
17 79 2
17 80 4
17 81 2
17 82 2
17 83 2
17 84 4
17 85 3
17 86 1
17 87 2
17 88 5
17 89 5
17 90 2
17 91 4
17 92 5
17 93 1
17 94 4
17 95 5
17 96 3
17 97 5
17 98 1
17 99 3
17 100 4
18 19 5
18 20 5
18 21 3
18 22 1
18 23 2
18 24 3
18 25 4
18 26 3
18 27 4
18 28 3
18 29 2
18 30 1
18 31 3
18 32 3
18 33 4
18 34 1
18 35 1
18 36 2
18 37 2
18 38 1
18 39 1
18 40 4
18 41 3
18 42 3
18 43 4
18 44 5
18 45 2
18 46 3
18 47 2
18 48 1
18 49 5
18 50 3
18 51 3
18 52 2
18 53 1
18 54 2
18 55 2
18 56 4
18 57 4
18 58 3
18 59 4
18 60 4
18 61 4
18 62 3
18 63 5
18 64 3
18 65 1
18 66 4
18 67 2
18 68 5
18 69 4
18 70 4
18 71 4
18 72 3
18 73 1
18 74 2
18 75 5
18 76 1
18 77 1
18 78 3
18 79 2
18 80 1
18 81 2
18 82 1
18 83 2
18 84 2
18 85 1
18 86 5
18 87 2
18 88 4
18 89 2
18 90 4
18 91 2
18 92 4
18 93 1
18 94 1
18 95 1
18 96 3
18 97 2
18 98 4
18 99 1
18 100 4
19 20 4
19 21 2
19 22 4
19 23 1
19 24 3
19 25 3
19 26 4
19 27 3
19 28 1
19 29 5
19 30 2
19 31 1
19 32 1
19 33 3
19 34 5
19 35 4
19 36 2
19 37 1
19 38 4
19 39 5
19 40 3
19 41 2
19 42 2
19 43 4
19 44 2
19 45 3
19 46 5
19 47 1
19 48 5
19 49 5
19 50 5
19 51 4
19 52 4
19 53 1
19 54 3
19 55 5
19 56 2
19 57 5
19 58 2
19 59 4
19 60 4
19 61 5
19 62 4
19 63 4
19 64 3
19 65 5
19 66 2
19 67 3
19 68 5
19 69 2
19 70 4
19 71 3
19 72 1
19 73 3
19 74 5
19 75 5
19 76 3
19 77 1
19 78 4
19 79 1
19 80 3
19 81 4
19 82 5
19 83 5
19 84 5
19 85 3
19 86 3
19 87 4
19 88 3
19 89 3
19 90 2
19 91 3
19 92 4
19 93 2
19 94 2
19 95 4
19 96 4
19 97 1
19 98 1
19 99 3
19 100 3
20 21 2
20 22 2
20 23 5
20 24 4
20 25 5
20 26 5
20 27 1
20 28 5
20 29 3
20 30 2
20 31 2
20 32 1
20 33 4
20 34 2
20 35 2
20 36 3
20 37 5
20 38 4
20 39 4
20 40 2
20 41 5
20 42 4
20 43 3
20 44 1
20 45 2
20 46 3
20 47 4
20 48 5
20 49 2
20 50 1
20 51 4
20 52 4
20 53 2
20 54 1
20 55 5
20 56 2
20 57 4
20 58 5
20 59 1
20 60 5
20 61 2
20 62 1
20 63 3
20 64 2
20 65 3
20 66 2
20 67 1
20 68 4
20 69 2
20 70 3
20 71 5
20 72 2
20 73 2
20 74 3
20 75 2
20 76 3
20 77 4
20 78 3
20 79 5
20 80 5
20 81 1
20 82 3
20 83 5
20 84 2
20 85 5
20 86 4
20 87 4
20 88 5
20 89 2
20 90 2
20 91 4
20 92 3
20 93 1
20 94 5
20 95 1
20 96 4
20 97 1
20 98 2
20 99 1
20 100 2
21 22 4
21 23 3
21 24 1
21 25 4
21 26 5
21 27 2
21 28 4
21 29 4
21 30 1
21 31 5
21 32 1
21 33 1
21 34 5
21 35 3
21 36 2
21 37 3
21 38 3
21 39 2
21 40 4
21 41 4
21 42 4
21 43 5
21 44 4
21 45 5
21 46 1
21 47 3
21 48 3
21 49 5
21 50 2
21 51 2
21 52 5
21 53 4
21 54 1
21 55 5
21 56 4
21 57 3
21 58 5
21 59 3
21 60 3
21 61 5
21 62 2
21 63 2
21 64 5
21 65 4
21 66 2
21 67 2
21 68 2
21 69 2
21 70 1
21 71 3
21 72 4
21 73 3
21 74 2
21 75 2
21 76 4
21 77 1
21 78 1
21 79 3
21 80 5
21 81 4
21 82 3
21 83 2
21 84 5
21 85 4
21 86 2
21 87 4
21 88 2
21 89 2
21 90 3
21 91 3
21 92 1
21 93 2
21 94 1
21 95 1
21 96 1
21 97 4
21 98 3
21 99 3
21 100 5
22 23 4
22 24 4
22 25 4
22 26 5
22 27 5
22 28 4
22 29 4
22 30 3
22 31 2
22 32 2
22 33 2
22 34 4
22 35 3
22 36 5
22 37 2
22 38 4
22 39 4
22 40 3
22 41 4
22 42 3
22 43 3
22 44 5
22 45 1
22 46 5
22 47 1
22 48 3
22 49 1
22 50 2
22 51 2
22 52 2
22 53 1
22 54 4
22 55 4
22 56 1
22 57 4
22 58 4
22 59 5
22 60 1
22 61 3
22 62 3
22 63 2
22 64 5
22 65 2
22 66 2
22 67 4
22 68 5
22 69 1
22 70 2
22 71 2
22 72 2
22 73 3
22 74 2
22 75 3
22 76 4
22 77 3
22 78 1
22 79 5
22 80 2
22 81 1
22 82 4
22 83 3
22 84 2
22 85 3
22 86 4
22 87 2
22 88 2
22 89 1
22 90 5
22 91 2
22 92 1
22 93 1
22 94 3
22 95 1
22 96 1
22 97 4
22 98 1
22 99 3
22 100 5
23 24 3
23 25 2
23 26 3
23 27 2
23 28 4
23 29 1
23 30 3
23 31 3
23 32 1
23 33 1
23 34 3
23 35 3
23 36 3
23 37 2
23 38 2
23 39 4
23 40 2
23 41 3
23 42 4
23 43 1
23 44 5
23 45 5
23 46 4
23 47 3
23 48 2
23 49 5
23 50 4
23 51 4
23 52 3
23 53 3
23 54 2
23 55 4
23 56 2
23 57 1
23 58 5
23 59 1
23 60 5
23 61 2
23 62 2
23 63 4
23 64 1
23 65 5
23 66 4
23 67 3
23 68 2
23 69 2
23 70 4
23 71 3
23 72 4
23 73 3
23 74 2
23 75 1
23 76 5
23 77 4
23 78 1
23 79 5
23 80 2
23 81 3
23 82 1
23 83 2
23 84 2
23 85 5
23 86 2
23 87 2
23 88 2
23 89 3
23 90 4
23 91 1
23 92 5
23 93 5
23 94 4
23 95 4
23 96 4
23 97 4
23 98 3
23 99 3
23 100 5
24 25 5
24 26 3
24 27 5
24 28 3
24 29 2
24 30 4
24 31 1
24 32 2
24 33 3
24 34 4
24 35 3
24 36 1
24 37 2
24 38 2
24 39 4
24 40 3
24 41 2
24 42 5
24 43 5
24 44 4
24 45 1
24 46 1
24 47 1
24 48 2
24 49 5
24 50 5
24 51 5
24 52 2
24 53 3
24 54 3
24 55 3
24 56 3
24 57 3
24 58 1
24 59 3
24 60 1
24 61 5
24 62 4
24 63 3
24 64 3
24 65 3
24 66 2
24 67 4
24 68 3
24 69 2
24 70 1
24 71 5
24 72 1
24 73 1
24 74 3
24 75 1
24 76 5
24 77 3
24 78 2
24 79 5
24 80 4
24 81 4
24 82 2
24 83 3
24 84 4
24 85 5
24 86 3
24 87 2
24 88 3
24 89 5
24 90 5
24 91 4
24 92 4
24 93 2
24 94 5
24 95 3
24 96 1
24 97 3
24 98 4
24 99 4
24 100 1
25 26 3
25 27 3
25 28 1
25 29 3
25 30 3
25 31 5
25 32 4
25 33 2
25 34 4
25 35 1
25 36 1
25 37 5
25 38 1
25 39 3
25 40 2
25 41 4
25 42 5
25 43 1
25 44 2
25 45 2
25 46 4
25 47 4
25 48 5
25 49 4
25 50 3
25 51 3
25 52 1
25 53 3
25 54 4
25 55 3
25 56 3
25 57 1
25 58 2
25 59 4
25 60 2
25 61 2
25 62 4
25 63 3
25 64 3
25 65 3
25 66 4
25 67 2
25 68 1
25 69 1
25 70 4
25 71 5
25 72 1
25 73 3
25 74 4
25 75 4
25 76 2
25 77 3
25 78 2
25 79 1
25 80 5
25 81 2
25 82 2
25 83 1
25 84 3
25 85 1
25 86 2
25 87 4
25 88 5
25 89 1
25 90 2
25 91 4
25 92 3
25 93 3
25 94 1
25 95 4
25 96 5
25 97 3
25 98 2
25 99 5
25 100 5
26 27 4
26 28 4
26 29 2
26 30 2
26 31 2
26 32 1
26 33 4
26 34 4
26 35 1
26 36 1
26 37 5
26 38 4
26 39 2
26 40 4
26 41 5
26 42 1
26 43 5
26 44 1
26 45 4
26 46 3
26 47 4
26 48 4
26 49 3
26 50 2
26 51 5
26 52 2
26 53 1
26 54 5
26 55 1
26 56 4
26 57 3
26 58 5
26 59 3
26 60 2
26 61 4
26 62 3
26 63 3
26 64 1
26 65 5
26 66 4
26 67 1
26 68 4
26 69 4
26 70 4
26 71 1
26 72 2
26 73 3
26 74 3
26 75 3
26 76 1
26 77 4
26 78 1
26 79 3
26 80 4
26 81 4
26 82 5
26 83 1
26 84 1
26 85 1
26 86 5
26 87 5
26 88 2
26 89 1
26 90 4
26 91 1
26 92 5
26 93 3
26 94 3
26 95 4
26 96 4
26 97 2
26 98 3
26 99 2
26 100 5
27 28 5
27 29 4
27 30 2
27 31 3
27 32 1
27 33 1
27 34 2
27 35 4
27 36 3
27 37 5
27 38 4
27 39 4
27 40 2
27 41 1
27 42 3
27 43 3
27 44 1
27 45 3
27 46 2
27 47 4
27 48 1
27 49 1
27 50 1
27 51 5
27 52 2
27 53 3
27 54 2
27 55 1
27 56 2
27 57 5
27 58 1
27 59 3
27 60 3
27 61 3
27 62 4
27 63 4
27 64 4
27 65 2
27 66 2
27 67 5
27 68 4
27 69 2
27 70 4
27 71 2
27 72 5
27 73 3
27 74 3
27 75 3
27 76 3
27 77 4
27 78 3
27 79 4
27 80 1
27 81 4
27 82 3
27 83 2
27 84 3
27 85 3
27 86 4
27 87 2
27 88 3
27 89 5
27 90 3
27 91 5
27 92 2
27 93 1
27 94 4
27 95 2
27 96 3
27 97 4
27 98 3
27 99 1
27 100 3
28 29 2
28 30 2
28 31 1
28 32 1
28 33 1
28 34 3
28 35 3
28 36 3
28 37 4
28 38 3
28 39 5
28 40 5
28 41 3
28 42 3
28 43 3
28 44 4
28 45 3
28 46 4
28 47 3
28 48 1
28 49 5
28 50 2
28 51 2
28 52 5
28 53 1
28 54 3
28 55 3
28 56 2
28 57 4
28 58 2
28 59 1
28 60 4
28 61 3
28 62 4
28 63 3
28 64 1
28 65 3
28 66 1
28 67 3
28 68 2
28 69 1
28 70 2
28 71 1
28 72 1
28 73 4
28 74 1
28 75 3
28 76 1
28 77 1
28 78 2
28 79 4
28 80 1
28 81 3
28 82 3
28 83 4
28 84 4
28 85 4
28 86 3
28 87 4
28 88 2
28 89 5
28 90 5
28 91 3
28 92 3
28 93 4
28 94 1
28 95 3
28 96 1
28 97 5
28 98 2
28 99 3
28 100 1
29 30 1
29 31 1
29 32 1
29 33 5
29 34 2
29 35 3
29 36 4
29 37 4
29 38 4
29 39 5
29 40 3
29 41 2
29 42 5
29 43 5
29 44 3
29 45 3
29 46 4
29 47 1
29 48 3
29 49 4
29 50 1
29 51 4
29 52 1
29 53 5
29 54 1
29 55 3
29 56 2
29 57 1
29 58 5
29 59 4
29 60 5
29 61 2
29 62 4
29 63 4
29 64 4
29 65 1
29 66 1
29 67 2
29 68 5
29 69 5
29 70 1
29 71 3
29 72 4
29 73 3
29 74 1
29 75 3
29 76 3
29 77 5
29 78 1
29 79 1
29 80 2
29 81 4
29 82 3
29 83 1
29 84 3
29 85 2
29 86 2
29 87 1
29 88 5
29 89 2
29 90 2
29 91 1
29 92 4
29 93 2
29 94 1
29 95 4
29 96 4
29 97 2
29 98 5
29 99 1
29 100 2
30 31 5
30 32 2
30 33 3
30 34 1
30 35 1
30 36 5
30 37 2
30 38 2
30 39 3
30 40 1
30 41 5
30 42 4
30 43 3
30 44 4
30 45 3
30 46 4
30 47 1
30 48 1
30 49 1
30 50 1
30 51 4
30 52 3
30 53 3
30 54 1
30 55 4
30 56 3
30 57 1
30 58 4
30 59 5
30 60 5
30 61 3
30 62 2
30 63 5
30 64 1
30 65 3
30 66 3
30 67 2
30 68 4
30 69 1
30 70 2
30 71 4
30 72 5
30 73 3
30 74 3
30 75 1
30 76 1
30 77 2
30 78 1
30 79 2
30 80 1
30 81 4
30 82 1
30 83 4
30 84 1
30 85 5
30 86 3
30 87 1
30 88 1
30 89 4
30 90 4
30 91 1
30 92 2
30 93 3
30 94 1
30 95 3
30 96 3
30 97 1
30 98 4
30 99 1
30 100 4
31 32 3
31 33 3
31 34 2
31 35 2
31 36 5
31 37 1
31 38 5
31 39 5
31 40 1
31 41 3
31 42 1
31 43 2
31 44 5
31 45 5
31 46 3
31 47 5
31 48 5
31 49 1
31 50 1
31 51 5
31 52 4
31 53 5
31 54 5
31 55 3
31 56 5
31 57 3
31 58 4
31 59 5
31 60 1
31 61 2
31 62 4
31 63 5
31 64 2
31 65 5
31 66 2
31 67 3
31 68 2
31 69 2
31 70 4
31 71 5
31 72 3
31 73 4
31 74 4
31 75 2
31 76 2
31 77 1
31 78 3
31 79 5
31 80 4
31 81 2
31 82 3
31 83 1
31 84 4
31 85 4
31 86 2
31 87 5
31 88 4
31 89 2
31 90 4
31 91 2
31 92 3
31 93 4
31 94 5
31 95 3
31 96 4
31 97 5
31 98 2
31 99 1
31 100 2
32 33 5
32 34 1
32 35 5
32 36 1
32 37 5
32 38 1
32 39 4
32 40 4
32 41 3
32 42 4
32 43 5
32 44 2
32 45 3
32 46 5
32 47 1
32 48 4
32 49 2
32 50 3
32 51 4
32 52 3
32 53 5
32 54 2
32 55 4
32 56 1
32 57 1
32 58 1
32 59 1
32 60 3
32 61 1
32 62 5
32 63 4
32 64 4
32 65 4
32 66 2
32 67 1
32 68 2
32 69 2
32 70 1
32 71 2
32 72 1
32 73 5
32 74 4
32 75 1
32 76 5
32 77 5
32 78 4
32 79 4
32 80 4
32 81 3
32 82 4
32 83 5
32 84 2
32 85 3
32 86 2
32 87 5
32 88 4
32 89 2
32 90 5
32 91 5
32 92 3
32 93 3
32 94 2
32 95 2
32 96 1
32 97 3
32 98 5
32 99 1
32 100 2
33 34 3
33 35 1
33 36 3
33 37 1
33 38 4
33 39 2
33 40 1
33 41 5
33 42 1
33 43 3
33 44 5
33 45 5
33 46 2
33 47 4
33 48 5
33 49 3
33 50 4
33 51 4
33 52 1
33 53 2
33 54 4
33 55 2
33 56 5
33 57 5
33 58 5
33 59 4
33 60 4
33 61 1
33 62 5
33 63 5
33 64 2
33 65 5
33 66 4
33 67 2
33 68 2
33 69 2
33 70 2
33 71 4
33 72 2
33 73 5
33 74 2
33 75 4
33 76 2
33 77 2
33 78 1
33 79 4
33 80 3
33 81 5
33 82 4
33 83 3
33 84 5
33 85 4
33 86 1
33 87 1
33 88 3
33 89 5
33 90 3
33 91 5
33 92 2
33 93 2
33 94 1
33 95 5
33 96 5
33 97 5
33 98 2
33 99 4
33 100 3
34 35 5
34 36 5
34 37 3
34 38 5
34 39 4
34 40 4
34 41 4
34 42 3
34 43 2
34 44 5
34 45 2
34 46 3
34 47 1
34 48 5
34 49 1
34 50 2
34 51 3
34 52 1
34 53 1
34 54 3
34 55 5
34 56 1
34 57 2
34 58 5
34 59 4
34 60 3
34 61 2
34 62 4
34 63 1
34 64 4
34 65 3
34 66 5
34 67 2
34 68 1
34 69 1
34 70 3
34 71 3
34 72 2
34 73 3
34 74 3
34 75 1
34 76 2
34 77 4
34 78 5
34 79 3
34 80 3
34 81 3
34 82 4
34 83 4
34 84 1
34 85 3
34 86 5
34 87 4
34 88 4
34 89 4
34 90 3
34 91 1
34 92 5
34 93 3
34 94 1
34 95 1
34 96 1
34 97 2
34 98 2
34 99 4
34 100 1
35 36 1
35 37 2
35 38 3
35 39 4
35 40 4
35 41 4
35 42 5
35 43 5
35 44 4
35 45 5
35 46 2
35 47 3
35 48 1
35 49 5
35 50 5
35 51 4
35 52 3
35 53 1
35 54 2
35 55 4
35 56 3
35 57 3
35 58 5
35 59 4
35 60 2
35 61 4
35 62 2
35 63 1
35 64 2
35 65 5
35 66 3
35 67 5
35 68 5
35 69 1
35 70 2
35 71 4
35 72 3
35 73 1
35 74 1
35 75 1
35 76 1
35 77 3
35 78 5
35 79 5
35 80 3
35 81 2
35 82 5
35 83 1
35 84 5
35 85 4
35 86 1
35 87 2
35 88 3
35 89 3
35 90 2
35 91 4
35 92 5
35 93 1
35 94 1
35 95 3
35 96 1
35 97 3
35 98 2
35 99 1
35 100 4
36 37 3
36 38 1
36 39 4
36 40 5
36 41 2
36 42 5
36 43 4
36 44 5
36 45 3
36 46 5
36 47 1
36 48 4
36 49 3
36 50 3
36 51 3
36 52 5
36 53 2
36 54 3
36 55 1
36 56 4
36 57 2
36 58 2
36 59 4
36 60 1
36 61 1
36 62 2
36 63 3
36 64 1
36 65 5
36 66 1
36 67 5
36 68 1
36 69 1
36 70 1
36 71 5
36 72 3
36 73 1
36 74 1
36 75 4
36 76 3
36 77 4
36 78 3
36 79 4
36 80 1
36 81 2
36 82 1
36 83 5
36 84 1
36 85 1
36 86 3
36 87 3
36 88 4
36 89 2
36 90 4
36 91 2
36 92 3
36 93 3
36 94 3
36 95 2
36 96 1
36 97 5
36 98 4
36 99 5
36 100 1
37 38 3
37 39 1
37 40 4
37 41 2
37 42 4
37 43 3
37 44 5
37 45 2
37 46 2
37 47 4
37 48 3
37 49 1
37 50 5
37 51 2
37 52 4
37 53 5
37 54 3
37 55 2
37 56 2
37 57 4
37 58 5
37 59 3
37 60 5
37 61 5
37 62 5
37 63 5
37 64 4
37 65 3
37 66 5
37 67 5
37 68 3
37 69 1
37 70 4
37 71 4
37 72 1
37 73 2
37 74 1
37 75 1
37 76 3
37 77 1
37 78 2
37 79 5
37 80 4
37 81 5
37 82 1
37 83 1
37 84 4
37 85 2
37 86 4
37 87 4
37 88 3
37 89 5
37 90 2
37 91 5
37 92 5
37 93 5
37 94 2
37 95 5
37 96 4
37 97 3
37 98 4
37 99 5
37 100 3
38 39 5
38 40 1
38 41 5
38 42 1
38 43 5
38 44 2
38 45 4
38 46 1
38 47 3
38 48 1
38 49 5
38 50 5
38 51 5
38 52 4
38 53 3
38 54 4
38 55 1
38 56 2
38 57 4
38 58 2
38 59 5
38 60 1
38 61 5
38 62 5
38 63 1
38 64 4
38 65 5
38 66 4
38 67 3
38 68 1
38 69 1
38 70 4
38 71 2
38 72 2
38 73 3
38 74 4
38 75 1
38 76 3
38 77 1
38 78 1
38 79 5
38 80 4
38 81 4
38 82 4
38 83 1
38 84 5
38 85 4
38 86 4
38 87 1
38 88 2
38 89 3
38 90 4
38 91 1
38 92 4
38 93 4
38 94 5
38 95 4
38 96 5
38 97 3
38 98 1
38 99 5
38 100 3
39 40 3
39 41 5
39 42 5
39 43 3
39 44 2
39 45 3
39 46 5
39 47 2
39 48 2
39 49 1
39 50 5
39 51 4
39 52 3
39 53 3
39 54 4
39 55 2
39 56 3
39 57 4
39 58 4
39 59 2
39 60 4
39 61 4
39 62 5
39 63 3
39 64 3
39 65 1
39 66 5
39 67 3
39 68 4
39 69 5
39 70 2
39 71 5
39 72 1
39 73 5
39 74 4
39 75 5
39 76 5
39 77 1
39 78 3
39 79 4
39 80 3
39 81 2
39 82 1
39 83 3
39 84 4
39 85 1
39 86 2
39 87 1
39 88 4
39 89 4
39 90 5
39 91 3
39 92 4
39 93 5
39 94 4
39 95 1
39 96 4
39 97 1
39 98 4
39 99 5
39 100 1
40 41 2
40 42 3
40 43 1
40 44 3
40 45 4
40 46 3
40 47 3
40 48 2
40 49 5
40 50 1
40 51 2
40 52 4
40 53 3
40 54 4
40 55 4
40 56 2
40 57 2
40 58 5
40 59 1
40 60 4
40 61 1
40 62 2
40 63 4
40 64 2
40 65 5
40 66 4
40 67 1
40 68 3
40 69 3
40 70 2
40 71 3
40 72 2
40 73 3
40 74 4
40 75 5
40 76 5
40 77 5
40 78 3
40 79 3
40 80 2
40 81 3
40 82 2
40 83 4
40 84 5
40 85 4
40 86 4
40 87 3
40 88 3
40 89 5
40 90 1
40 91 4
40 92 4
40 93 2
40 94 3
40 95 2
40 96 3
40 97 2
40 98 1
40 99 3
40 100 1
41 42 5
41 43 4
41 44 3
41 45 2
41 46 5
41 47 4
41 48 4
41 49 2
41 50 5
41 51 2
41 52 3
41 53 4
41 54 2
41 55 5
41 56 3
41 57 2
41 58 5
41 59 5
41 60 5
41 61 4
41 62 1
41 63 5
41 64 5
41 65 2
41 66 3
41 67 4
41 68 3
41 69 3
41 70 4
41 71 4
41 72 3
41 73 2
41 74 5
41 75 3
41 76 1
41 77 2
41 78 3
41 79 4
41 80 5
41 81 1
41 82 1
41 83 3
41 84 5
41 85 1
41 86 4
41 87 1
41 88 2
41 89 5
41 90 2
41 91 1
41 92 2
41 93 4
41 94 4
41 95 1
41 96 5
41 97 4
41 98 1
41 99 1
41 100 4
42 43 2
42 44 3
42 45 1
42 46 5
42 47 5
42 48 4
42 49 4
42 50 4
42 51 2
42 52 1
42 53 3
42 54 5
42 55 3
42 56 1
42 57 3
42 58 2
42 59 3
42 60 3
42 61 5
42 62 3
42 63 4
42 64 4
42 65 5
42 66 5
42 67 3
42 68 3
42 69 3
42 70 1
42 71 2
42 72 4
42 73 3
42 74 3
42 75 5
42 76 2
42 77 1
42 78 2
42 79 3
42 80 3
42 81 3
42 82 5
42 83 3
42 84 3
42 85 5
42 86 5
42 87 2
42 88 4
42 89 2
42 90 2
42 91 2
42 92 1
42 93 1
42 94 4
42 95 2
42 96 2
42 97 4
42 98 1
42 99 2
42 100 2
43 44 5
43 45 2
43 46 1
43 47 3
43 48 2
43 49 2
43 50 5
43 51 3
43 52 3
43 53 3
43 54 2
43 55 2
43 56 1
43 57 4
43 58 1
43 59 1
43 60 5
43 61 1
43 62 1
43 63 4
43 64 3
43 65 1
43 66 3
43 67 4
43 68 2
43 69 3
43 70 1
43 71 4
43 72 5
43 73 4
43 74 5
43 75 2
43 76 2
43 77 5
43 78 5
43 79 4
43 80 3
43 81 4
43 82 5
43 83 1
43 84 3
43 85 2
43 86 2
43 87 2
43 88 2
43 89 2
43 90 5
43 91 5
43 92 4
43 93 4
43 94 1
43 95 5
43 96 5
43 97 3
43 98 5
43 99 1
43 100 2
44 45 5
44 46 3
44 47 4
44 48 4
44 49 3
44 50 4
44 51 3
44 52 3
44 53 1
44 54 1
44 55 3
44 56 1
44 57 4
44 58 1
44 59 1
44 60 3
44 61 4
44 62 5
44 63 1
44 64 5
44 65 4
44 66 1
44 67 5
44 68 2
44 69 4
44 70 3
44 71 4
44 72 5
44 73 5
44 74 1
44 75 4
44 76 5
44 77 4
44 78 1
44 79 5
44 80 1
44 81 5
44 82 1
44 83 2
44 84 2
44 85 5
44 86 2
44 87 2
44 88 1
44 89 3
44 90 5
44 91 1
44 92 2
44 93 4
44 94 3
44 95 4
44 96 3
44 97 3
44 98 4
44 99 5
44 100 3
45 46 3
45 47 1
45 48 4
45 49 3
45 50 3
45 51 1
45 52 3
45 53 4
45 54 1
45 55 1
45 56 2
45 57 3
45 58 4
45 59 2
45 60 3
45 61 5
45 62 4
45 63 5
45 64 1
45 65 3
45 66 1
45 67 2
45 68 2
45 69 5
45 70 2
45 71 2
45 72 3
45 73 1
45 74 2
45 75 1
45 76 2
45 77 4
45 78 1
45 79 3
45 80 3
45 81 5
45 82 1
45 83 4
45 84 2
45 85 3
45 86 5
45 87 1
45 88 2
45 89 1
45 90 5
45 91 3
45 92 1
45 93 1
45 94 4
45 95 4
45 96 3
45 97 3
45 98 4
45 99 2
45 100 4
46 47 3
46 48 4
46 49 1
46 50 2
46 51 2
46 52 1
46 53 4
46 54 4
46 55 1
46 56 4
46 57 5
46 58 2
46 59 2
46 60 1
46 61 5
46 62 1
46 63 5
46 64 5
46 65 3
46 66 4
46 67 3
46 68 2
46 69 3
46 70 2
46 71 1
46 72 3
46 73 4
46 74 5
46 75 3
46 76 2
46 77 5
46 78 1
46 79 5
46 80 3
46 81 2
46 82 1
46 83 3
46 84 2
46 85 1
46 86 1
46 87 2
46 88 4
46 89 2
46 90 1
46 91 4
46 92 4
46 93 3
46 94 2
46 95 4
46 96 2
46 97 4
46 98 1
46 99 4
46 100 3
47 48 5
47 49 2
47 50 4
47 51 4
47 52 4
47 53 1
47 54 5
47 55 2
47 56 3
47 57 4
47 58 1
47 59 5
47 60 3
47 61 5
47 62 1
47 63 3
47 64 5
47 65 2
47 66 5
47 67 4
47 68 1
47 69 5
47 70 2
47 71 5
47 72 5
47 73 1
47 74 5
47 75 5
47 76 5
47 77 2
47 78 5
47 79 4
47 80 2
47 81 1
47 82 2
47 83 1
47 84 1
47 85 3
47 86 3
47 87 1
47 88 3
47 89 2
47 90 4
47 91 2
47 92 4
47 93 5
47 94 3
47 95 4
47 96 4
47 97 1
47 98 5
47 99 3
47 100 4
48 49 3
48 50 5
48 51 2
48 52 3
48 53 1
48 54 5
48 55 5
48 56 4
48 57 4
48 58 3
48 59 5
48 60 3
48 61 4
48 62 1
48 63 2
48 64 4
48 65 1
48 66 1
48 67 5
48 68 2
48 69 1
48 70 3
48 71 3
48 72 3
48 73 3
48 74 4
48 75 4
48 76 3
48 77 3
48 78 2
48 79 2
48 80 3
48 81 2
48 82 1
48 83 5
48 84 4
48 85 5
48 86 4
48 87 1
48 88 2
48 89 4
48 90 3
48 91 4
48 92 4
48 93 2
48 94 3
48 95 3
48 96 4
48 97 4
48 98 2
48 99 1
48 100 2
49 50 3
49 51 2
49 52 5
49 53 3
49 54 4
49 55 1
49 56 3
49 57 1
49 58 3
49 59 3
49 60 4
49 61 3
49 62 5
49 63 5
49 64 5
49 65 4
49 66 2
49 67 5
49 68 3
49 69 4
49 70 1
49 71 1
49 72 1
49 73 2
49 74 1
49 75 5
49 76 3
49 77 2
49 78 4
49 79 4
49 80 1
49 81 4
49 82 5
49 83 1
49 84 2
49 85 5
49 86 3
49 87 1
49 88 2
49 89 1
49 90 4
49 91 4
49 92 3
49 93 2
49 94 3
49 95 3
49 96 2
49 97 3
49 98 2
49 99 4
49 100 4
50 51 4
50 52 4
50 53 4
50 54 5
50 55 3
50 56 3
50 57 5
50 58 4
50 59 4
50 60 3
50 61 4
50 62 2
50 63 3
50 64 4
50 65 5
50 66 5
50 67 5
50 68 2
50 69 4
50 70 2
50 71 3
50 72 3
50 73 5
50 74 5
50 75 5
50 76 1
50 77 4
50 78 1
50 79 1
50 80 3
50 81 4
50 82 3
50 83 3
50 84 4
50 85 1
50 86 1
50 87 2
50 88 5
50 89 5
50 90 5
50 91 4
50 92 4
50 93 5
50 94 4
50 95 4
50 96 5
50 97 3
50 98 3
50 99 1
50 100 5
51 52 1
51 53 4
51 54 4
51 55 1
51 56 3
51 57 4
51 58 3
51 59 3
51 60 3
51 61 2
51 62 2
51 63 5
51 64 3
51 65 3
51 66 5
51 67 2
51 68 3
51 69 2
51 70 3
51 71 1
51 72 1
51 73 3
51 74 3
51 75 4
51 76 1
51 77 5
51 78 2
51 79 4
51 80 5
51 81 1
51 82 2
51 83 2
51 84 5
51 85 3
51 86 2
51 87 5
51 88 5
51 89 3
51 90 4
51 91 5
51 92 3
51 93 1
51 94 2
51 95 4
51 96 2
51 97 1
51 98 5
51 99 4
51 100 1
52 53 1
52 54 3
52 55 3
52 56 1
52 57 2
52 58 4
52 59 5
52 60 3
52 61 3
52 62 2
52 63 1
52 64 5
52 65 5
52 66 4
52 67 2
52 68 1
52 69 4
52 70 2
52 71 5
52 72 4
52 73 2
52 74 1
52 75 3
52 76 1
52 77 4
52 78 5
52 79 2
52 80 4
52 81 5
52 82 3
52 83 3
52 84 1
52 85 5
52 86 5
52 87 5
52 88 4
52 89 5
52 90 5
52 91 5
52 92 5
52 93 5
52 94 4
52 95 5
52 96 1
52 97 4
52 98 5
52 99 2
52 100 4
53 54 2
53 55 1
53 56 2
53 57 1
53 58 5
53 59 3
53 60 1
53 61 2
53 62 2
53 63 3
53 64 1
53 65 5
53 66 2
53 67 3
53 68 5
53 69 1
53 70 5
53 71 1
53 72 5
53 73 1
53 74 3
53 75 5
53 76 4
53 77 1
53 78 3
53 79 1
53 80 1
53 81 2
53 82 4
53 83 1
53 84 5
53 85 4
53 86 4
53 87 2
53 88 2
53 89 1
53 90 4
53 91 5
53 92 2
53 93 2
53 94 1
53 95 3
53 96 1
53 97 2
53 98 4
53 99 4
53 100 1
54 55 2
54 56 3
54 57 1
54 58 1
54 59 1
54 60 4
54 61 5
54 62 4
54 63 1
54 64 5
54 65 2
54 66 5
54 67 3
54 68 2
54 69 1
54 70 2
54 71 5
54 72 5
54 73 3
54 74 4
54 75 2
54 76 4
54 77 4
54 78 3
54 79 4
54 80 2
54 81 5
54 82 1
54 83 4
54 84 3
54 85 2
54 86 4
54 87 3
54 88 2
54 89 3
54 90 1
54 91 5
54 92 1
54 93 2
54 94 5
54 95 5
54 96 5
54 97 2
54 98 1
54 99 4
54 100 5
55 56 5
55 57 5
55 58 2
55 59 5
55 60 5
55 61 3
55 62 2
55 63 1
55 64 3
55 65 1
55 66 5
55 67 2
55 68 2
55 69 3
55 70 1
55 71 1
55 72 4
55 73 4
55 74 5
55 75 5
55 76 3
55 77 1
55 78 1
55 79 1
55 80 3
55 81 1
55 82 1
55 83 2
55 84 1
55 85 5
55 86 2
55 87 4
55 88 4
55 89 2
55 90 1
55 91 3
55 92 4
55 93 5
55 94 5
55 95 1
55 96 4
55 97 4
55 98 3
55 99 2
55 100 1
56 57 2
56 58 5
56 59 5
56 60 1
56 61 1
56 62 4
56 63 1
56 64 4
56 65 1
56 66 1
56 67 2
56 68 4
56 69 1
56 70 5
56 71 2
56 72 1
56 73 5
56 74 3
56 75 5
56 76 2
56 77 3
56 78 4
56 79 3
56 80 4
56 81 2
56 82 3
56 83 3
56 84 4
56 85 5
56 86 1
56 87 2
56 88 2
56 89 4
56 90 4
56 91 5
56 92 2
56 93 5
56 94 2
56 95 5
56 96 5
56 97 2
56 98 3
56 99 5
56 100 3
57 58 3
57 59 3
57 60 5
57 61 4
57 62 4
57 63 4
57 64 3
57 65 3
57 66 2
57 67 5
57 68 2
57 69 3
57 70 5
57 71 4
57 72 5
57 73 5
57 74 4
57 75 4
57 76 5
57 77 2
57 78 5
57 79 5
57 80 3
57 81 4
57 82 5
57 83 3
57 84 2
57 85 2
57 86 3
57 87 4
57 88 2
57 89 2
57 90 3
57 91 2
57 92 4
57 93 3
57 94 5
57 95 5
57 96 2
57 97 2
57 98 2
57 99 5
57 100 2
58 59 5
58 60 2
58 61 4
58 62 2
58 63 3
58 64 4
58 65 3
58 66 1
58 67 5
58 68 4
58 69 5
58 70 4
58 71 4
58 72 3
58 73 2
58 74 5
58 75 1
58 76 2
58 77 4
58 78 2
58 79 5
58 80 3
58 81 4
58 82 1
58 83 3
58 84 1
58 85 4
58 86 2
58 87 5
58 88 4
58 89 2
58 90 1
58 91 1
58 92 1
58 93 4
58 94 5
58 95 4
58 96 4
58 97 1
58 98 2
58 99 5
58 100 5
59 60 4
59 61 1
59 62 4
59 63 4
59 64 1
59 65 5
59 66 1
59 67 5
59 68 1
59 69 4
59 70 5
59 71 5
59 72 3
59 73 2
59 74 1
59 75 5
59 76 5
59 77 2
59 78 4
59 79 1
59 80 2
59 81 2
59 82 1
59 83 4
59 84 4
59 85 4
59 86 1
59 87 5
59 88 5
59 89 5
59 90 1
59 91 4
59 92 2
59 93 1
59 94 4
59 95 3
59 96 1
59 97 5
59 98 5
59 99 5
59 100 3
60 61 3
60 62 2
60 63 1
60 64 3
60 65 3
60 66 5
60 67 5
60 68 4
60 69 2
60 70 2
60 71 3
60 72 1
60 73 1
60 74 5
60 75 5
60 76 3
60 77 1
60 78 1
60 79 1
60 80 3
60 81 2
60 82 4
60 83 3
60 84 1
60 85 3
60 86 2
60 87 4
60 88 3
60 89 1
60 90 1
60 91 3
60 92 1
60 93 4
60 94 1
60 95 3
60 96 5
60 97 5
60 98 1
60 99 2
60 100 1
61 62 2
61 63 5
61 64 4
61 65 2
61 66 1
61 67 2
61 68 5
61 69 4
61 70 3
61 71 2
61 72 5
61 73 5
61 74 4
61 75 5
61 76 3
61 77 5
61 78 5
61 79 3
61 80 4
61 81 2
61 82 3
61 83 4
61 84 2
61 85 4
61 86 1
61 87 3
61 88 5
61 89 5
61 90 4
61 91 5
61 92 2
61 93 5
61 94 2
61 95 4
61 96 3
61 97 2
61 98 4
61 99 1
61 100 4
62 63 2
62 64 3
62 65 4
62 66 1
62 67 4
62 68 5
62 69 1
62 70 2
62 71 5
62 72 5
62 73 2
62 74 1
62 75 5
62 76 2
62 77 4
62 78 4
62 79 1
62 80 1
62 81 1
62 82 2
62 83 4
62 84 4
62 85 2
62 86 3
62 87 1
62 88 5
62 89 1
62 90 2
62 91 1
62 92 1
62 93 5
62 94 5
62 95 1
62 96 2
62 97 4
62 98 1
62 99 3
62 100 3
63 64 4
63 65 3
63 66 3
63 67 2
63 68 4
63 69 5
63 70 5
63 71 4
63 72 1
63 73 3
63 74 2
63 75 1
63 76 3
63 77 1
63 78 3
63 79 1
63 80 1
63 81 1
63 82 4
63 83 5
63 84 1
63 85 5
63 86 3
63 87 5
63 88 4
63 89 1
63 90 4
63 91 2
63 92 3
63 93 5
63 94 2
63 95 4
63 96 1
63 97 3
63 98 1
63 99 1
63 100 3
64 65 3
64 66 2
64 67 4
64 68 2
64 69 2
64 70 2
64 71 1
64 72 4
64 73 3
64 74 5
64 75 2
64 76 3
64 77 5
64 78 5
64 79 2
64 80 2
64 81 1
64 82 5
64 83 1
64 84 5
64 85 2
64 86 5
64 87 2
64 88 3
64 89 4
64 90 1
64 91 2
64 92 5
64 93 5
64 94 2
64 95 2
64 96 4
64 97 5
64 98 4
64 99 3
64 100 2
65 66 1
65 67 1
65 68 3
65 69 4
65 70 2
65 71 3
65 72 4
65 73 2
65 74 1
65 75 4
65 76 5
65 77 2
65 78 4
65 79 3
65 80 2
65 81 3
65 82 3
65 83 4
65 84 4
65 85 1
65 86 5
65 87 4
65 88 4
65 89 4
65 90 1
65 91 1
65 92 3
65 93 4
65 94 5
65 95 5
65 96 3
65 97 3
65 98 4
65 99 5
65 100 3
66 67 1
66 68 2
66 69 3
66 70 4
66 71 4
66 72 5
66 73 5
66 74 2
66 75 2
66 76 1
66 77 2
66 78 4
66 79 1
66 80 1
66 81 2
66 82 3
66 83 4
66 84 4
66 85 5
66 86 4
66 87 4
66 88 4
66 89 2
66 90 5
66 91 1
66 92 5
66 93 2
66 94 5
66 95 4
66 96 3
66 97 5
66 98 5
66 99 5
66 100 1
67 68 3
67 69 5
67 70 2
67 71 2
67 72 4
67 73 1
67 74 2
67 75 4
67 76 5
67 77 2
67 78 2
67 79 4
67 80 4
67 81 4
67 82 2
67 83 5
67 84 4
67 85 2
67 86 4
67 87 1
67 88 1
67 89 3
67 90 2
67 91 5
67 92 2
67 93 4
67 94 2
67 95 3
67 96 1
67 97 5
67 98 5
67 99 2
67 100 1
68 69 5
68 70 5
68 71 5
68 72 1
68 73 1
68 74 1
68 75 1
68 76 2
68 77 1
68 78 3
68 79 4
68 80 4
68 81 1
68 82 3
68 83 3
68 84 3
68 85 4
68 86 4
68 87 3
68 88 2
68 89 5
68 90 3
68 91 4
68 92 5
68 93 5
68 94 1
68 95 5
68 96 3
68 97 4
68 98 3
68 99 4
68 100 5
69 70 3
69 71 4
69 72 2
69 73 2
69 74 1
69 75 4
69 76 1
69 77 3
69 78 2
69 79 3
69 80 1
69 81 3
69 82 4
69 83 1
69 84 5
69 85 1
69 86 5
69 87 5
69 88 2
69 89 2
69 90 4
69 91 2
69 92 4
69 93 3
69 94 2
69 95 2
69 96 5
69 97 1
69 98 3
69 99 2
69 100 1
70 71 5
70 72 4
70 73 4
70 74 3
70 75 4
70 76 1
70 77 2
70 78 3
70 79 2
70 80 4
70 81 2
70 82 3
70 83 4
70 84 3
70 85 1
70 86 4
70 87 3
70 88 5
70 89 5
70 90 1
70 91 4
70 92 3
70 93 2
70 94 2
70 95 5
70 96 4
70 97 4
70 98 4
70 99 5
70 100 5
71 72 4
71 73 3
71 74 5
71 75 2
71 76 4
71 77 3
71 78 5
71 79 5
71 80 2
71 81 3
71 82 3
71 83 1
71 84 3
71 85 4
71 86 1
71 87 2
71 88 3
71 89 1
71 90 2
71 91 1
71 92 5
71 93 5
71 94 1
71 95 1
71 96 2
71 97 1
71 98 3
71 99 3
71 100 2
72 73 3
72 74 4
72 75 2
72 76 4
72 77 5
72 78 3
72 79 5
72 80 3
72 81 4
72 82 4
72 83 3
72 84 1
72 85 4
72 86 4
72 87 5
72 88 4
72 89 2
72 90 3
72 91 2
72 92 1
72 93 2
72 94 1
72 95 1
72 96 5
72 97 1
72 98 4
72 99 3
72 100 4
73 74 1
73 75 1
73 76 3
73 77 1
73 78 1
73 79 1
73 80 5
73 81 4
73 82 1
73 83 5
73 84 4
73 85 4
73 86 5
73 87 4
73 88 1
73 89 3
73 90 5
73 91 5
73 92 5
73 93 3
73 94 4
73 95 2
73 96 4
73 97 2
73 98 2
73 99 5
73 100 4
74 75 3
74 76 3
74 77 3
74 78 4
74 79 3
74 80 4
74 81 4
74 82 3
74 83 2
74 84 5
74 85 1
74 86 5
74 87 2
74 88 5
74 89 1
74 90 3
74 91 3
74 92 2
74 93 3
74 94 4
74 95 1
74 96 5
74 97 4
74 98 4
74 99 1
74 100 2
75 76 4
75 77 1
75 78 1
75 79 3
75 80 3
75 81 2
75 82 1
75 83 3
75 84 5
75 85 4
75 86 5
75 87 2
75 88 4
75 89 5
75 90 4
75 91 4
75 92 4
75 93 5
75 94 3
75 95 5
75 96 2
75 97 1
75 98 5
75 99 5
75 100 1
76 77 1
76 78 1
76 79 2
76 80 1
76 81 1
76 82 3
76 83 3
76 84 4
76 85 5
76 86 2
76 87 2
76 88 4
76 89 4
76 90 1
76 91 5
76 92 5
76 93 1
76 94 3
76 95 1
76 96 5
76 97 4
76 98 2
76 99 4
76 100 1
77 78 4
77 79 3
77 80 5
77 81 4
77 82 4
77 83 5
77 84 2
77 85 3
77 86 1
77 87 5
77 88 5
77 89 3
77 90 2
77 91 5
77 92 1
77 93 3
77 94 3
77 95 1
77 96 5
77 97 3
77 98 3
77 99 3
77 100 4
78 79 1
78 80 2
78 81 1
78 82 3
78 83 1
78 84 1
78 85 5
78 86 4
78 87 1
78 88 2
78 89 4
78 90 4
78 91 3
78 92 4
78 93 2
78 94 3
78 95 5
78 96 3
78 97 1
78 98 4
78 99 2
78 100 5
79 80 1
79 81 5
79 82 2
79 83 2
79 84 1
79 85 1
79 86 2
79 87 3
79 88 4
79 89 3
79 90 1
79 91 4
79 92 2
79 93 2
79 94 5
79 95 1
79 96 1
79 97 2
79 98 1
79 99 4
79 100 3
80 81 1
80 82 2
80 83 1
80 84 4
80 85 1
80 86 3
80 87 4
80 88 1
80 89 5
80 90 2
80 91 1
80 92 4
80 93 2
80 94 4
80 95 5
80 96 2
80 97 1
80 98 1
80 99 5
80 100 1
81 82 5
81 83 5
81 84 5
81 85 3
81 86 2
81 87 4
81 88 4
81 89 2
81 90 3
81 91 3
81 92 1
81 93 5
81 94 2
81 95 2
81 96 4
81 97 3
81 98 3
81 99 1
81 100 5
82 83 4
82 84 4
82 85 1
82 86 5
82 87 4
82 88 4
82 89 3
82 90 3
82 91 2
82 92 2
82 93 4
82 94 5
82 95 4
82 96 3
82 97 2
82 98 1
82 99 3
82 100 1
83 84 1
83 85 5
83 86 3
83 87 4
83 88 4
83 89 2
83 90 1
83 91 5
83 92 2
83 93 1
83 94 3
83 95 3
83 96 5
83 97 4
83 98 2
83 99 3
83 100 1
84 85 3
84 86 3
84 87 4
84 88 1
84 89 1
84 90 4
84 91 5
84 92 5
84 93 1
84 94 1
84 95 3
84 96 4
84 97 3
84 98 4
84 99 1
84 100 2
85 86 4
85 87 4
85 88 3
85 89 5
85 90 3
85 91 2
85 92 4
85 93 1
85 94 5
85 95 1
85 96 3
85 97 4
85 98 5
85 99 1
85 100 5
86 87 5
86 88 5
86 89 3
86 90 2
86 91 3
86 92 5
86 93 5
86 94 4
86 95 5
86 96 5
86 97 2
86 98 4
86 99 1
86 100 2
87 88 2
87 89 3
87 90 3
87 91 4
87 92 5
87 93 5
87 94 3
87 95 4
87 96 3
87 97 4
87 98 5
87 99 3
87 100 3
88 89 2
88 90 3
88 91 1
88 92 4
88 93 2
88 94 1
88 95 4
88 96 2
88 97 4
88 98 2
88 99 1
88 100 1
89 90 1
89 91 2
89 92 3
89 93 5
89 94 1
89 95 2
89 96 4
89 97 4
89 98 2
89 99 1
89 100 3
90 91 1
90 92 1
90 93 5
90 94 3
90 95 4
90 96 2
90 97 5
90 98 5
90 99 4
90 100 5
91 92 1
91 93 5
91 94 2
91 95 5
91 96 5
91 97 4
91 98 3
91 99 5
91 100 1
92 93 5
92 94 1
92 95 5
92 96 1
92 97 3
92 98 3
92 99 5
92 100 3
93 94 1
93 95 4
93 96 1
93 97 3
93 98 5
93 99 1
93 100 4
94 95 4
94 96 5
94 97 1
94 98 4
94 99 3
94 100 1
95 96 4
95 97 2
95 98 1
95 99 1
95 100 2
96 97 2
96 98 2
96 99 1
96 100 5
97 98 1
97 99 3
97 100 2
98 99 3
98 100 3
99 100 1
